\* Problem: Unknown *\

Maximize
 obj: + xp_0_0 + xp_1_0 + xp_1_1 + xp_2_0 + xp_2_1 + xp_3_0 + xp_3_1
 + xp_4_0 + xp_5_0 + xp_6_0 + xp_7_0 + xp_8_0 + xp_9_0 + xp_9_1
 + xp_10_0 + xp_11_0 + xp_11_1 + xp_12_0 + xp_12_1 + xp_13_0 + xp_13_1
 + xp_14_0 + xp_14_1 + xp_15_0 + xp_16_0 + xp_17_0 + xp_17_1 + xp_18_0
 + xp_18_1 + xp_19_0 + xp_19_1 + xp_20_0 + xp_21_0 + xp_22_0 + xp_22_1
 + xp_23_0 + xp_24_0 + xp_24_1 + xp_25_0 + xp_26_0 + xp_27_0 + xp_28_0
 + xp_28_1 + xp_29_0 + xp_30_0 + xp_30_1 + xp_31_0 + xp_32_0 + xp_32_1
 + xp_33_0 + xp_34_0 + xp_34_1 + xp_35_0 + xp_36_0 + xp_37_0 + xp_38_0
 + xp_39_0 + xp_40_0 + xp_40_1 + xp_40_2 + xp_41_0 + xp_42_0 + xp_42_1
 + xp_43_0 + xp_44_0 + xp_45_0 + xp_46_0 + xp_47_0 + xp_48_0 + xp_48_1
 + xp_49_0 + xp_50_0 + xp_50_1 + xp_51_0 + xp_52_0 + xp_53_0 + xp_54_0
 + xp_55_0 + xp_56_0 + xp_57_0 + xp_58_0 + xp_58_1 + xp_59_0 + xp_60_0
 + xp_60_1 + xp_61_0 + xp_61_1 + xp_62_0 + xp_63_0 + xp_63_1 + xp_64_0
 + xp_65_0 + xp_65_1 + xp_66_0 + xp_67_0 + xp_67_1 + xp_68_0 + xp_68_1
 + xp_69_0 + xp_70_0 + xp_71_0 + xp_72_0 + xp_73_0 + xp_74_0 + xp_75_0
 + xp_75_1 + xp_76_0 + xp_77_0 + xp_77_1 + xp_78_0 + xp_78_1 + xp_78_2
 + xp_78_3 + xp_79_0 + xp_79_1 + xp_80_0 + xp_80_1 + xp_81_0 + xp_81_1
 + xp_82_0 + xp_83_0 + xp_84_0 + xp_85_0 + xp_85_1 + xp_85_2 + xp_86_0
 + xp_86_1 + xp_86_2 + xp_87_0 + xp_88_0 + xp_89_0 + xp_90_0 + xp_90_1
 + xp_90_2 + xp_91_0 + xp_91_1 + xp_92_0 + xp_93_0 + xp_94_0 + xp_95_0
 + xp_95_1 + xp_96_0 + xp_97_0 + xp_98_0 + xp_98_1 + xp_99_0 + xp_100_0
 + xp_101_0 + xp_102_0 + xp_103_0 + xp_104_0 + xp_105_0 + xp_105_1
 + xp_106_0 + xp_107_0 + xp_108_0 + xp_108_1 + xp_108_2 + xp_109_0
 + xp_109_1 + xp_110_0 + xp_111_0 + xp_111_1 + xp_111_2 + xp_112_0
 + xp_112_1 + xp_112_2 + xp_112_3 + xp_113_0 + xp_114_0 + xp_115_0
 + xp_115_1 + xp_116_0 + xp_116_1 + xp_117_0 + xp_118_0 + xp_119_0
 + xp_120_0 + xp_120_1 + xp_120_2 + xp_121_0 + xp_122_0 + xp_123_0
 + xp_124_0 + xp_125_0 + xp_125_1 + xp_126_0 + xp_126_1 + xp_126_2
 + xp_126_3 + xp_126_4 + xp_126_5 + xp_127_0 + xp_127_1 + xp_128_0
 + xp_128_1 + xp_128_2 + xp_129_0 + xp_129_1 + xp_130_0 + xp_131_0
 + xp_131_1 + xp_131_2

Subject To
 r_1: + xp_128_2 + xp_128_1 + xp_122_0 + xp_121_0 + xp_108_2 + xp_107_0
 + xp_78_3 + xp_67_1 + xp_40_2 + xp_40_1 + xp_25_0 + xp_22_1 + xp_18_0
 + xp_16_0 + xp_13_1 + xp_4_0 <= 37866.6666666667
 r_2: + xp_131_2 + xp_131_1 + xp_127_1 + xp_126_4 + xp_126_1 + xp_120_1
 + xp_120_0 + xp_93_0 + xp_90_1 + xp_85_2 + xp_85_1 + xp_85_0 + xp_77_1
 + xp_75_1 + xp_75_0 + xp_71_0 + xp_66_0 + xp_65_1 + xp_65_0 + xp_61_1
 + xp_55_0 + xp_52_0 + xp_48_1 + xp_48_0 + xp_42_1 + xp_32_1 + xp_32_0
 + xp_28_1 + xp_28_0 + xp_24_0 + xp_19_1 + xp_19_0 + xp_12_1 + xp_1_1
 <= 35194.5923801721
 r_3: + xp_126_5 + xp_126_4 + xp_114_0 + xp_105_1 + xp_95_0 + xp_76_0
 + xp_34_0 <= 39648.3971044467
 r_4: + xp_117_0 + xp_112_3 + xp_112_2 + xp_111_2 + xp_95_1 + xp_91_1
 + xp_91_0 + xp_84_0 + xp_79_1 + xp_79_0 + xp_46_0 + xp_43_0 + xp_40_2
 + xp_40_1 + xp_40_0 + xp_34_1 <= 36656.4228641672
 r_5: + xp_130_0 + xp_112_3 + xp_112_2 + xp_111_2 + xp_99_0 + xp_86_0
 + xp_7_0 + xp_2_0 <= 39648.3971044467
 r_6: + xp_126_5 + xp_126_4 + xp_126_2 + xp_119_0 + xp_114_0 + xp_95_0
 + xp_83_0 + xp_81_0 + xp_70_0 + xp_68_1 + xp_58_1 + xp_53_0 + xp_48_1
 + xp_45_0 + xp_34_0 + xp_32_1 + xp_30_1 + xp_18_0 <= 39177.1539206196
 r_7: + xp_112_1 + xp_111_1 + xp_104_0 + xp_88_0 + xp_82_0 + xp_81_1
 + xp_78_2 + xp_50_1 + xp_44_0 + xp_27_0 + xp_18_1 + xp_3_1
 <= 36656.4228641672
 r_8: + xp_131_2 + xp_131_1 + xp_127_1 + xp_126_4 + xp_126_1 + xp_120_1
 + xp_120_0 + xp_118_0 + xp_103_0 + xp_90_1 + xp_77_1 + xp_71_0
 + xp_61_1 + xp_55_0 + xp_42_1 + xp_32_1 + xp_32_0 + xp_24_0 + xp_12_1
 + xp_1_1 <= 37866.6666666667
 r_9: + xp_131_0 + xp_127_0 + xp_122_0 + xp_120_2 + xp_108_2 + xp_78_3
 + xp_77_0 + xp_67_1 + xp_42_0 + xp_33_0 + xp_24_1 <= 40000
 r_10: + xp_112_3 + xp_112_2 + xp_112_1 + xp_111_2 + xp_111_1 + xp_106_0
 + xp_99_0 + xp_98_0 + xp_88_0 + xp_86_0 + xp_85_0 + xp_78_2 + xp_50_1
 + xp_26_0 + xp_24_0 + xp_8_0 + xp_7_0 + xp_3_1 + xp_2_0
 <= 39177.1539206196
 r_11: + xp_119_0 + xp_112_0 + xp_111_0 + xp_95_0 + xp_81_0 + xp_78_3
 + xp_78_1 + xp_78_0 + xp_59_0 + xp_53_0 + xp_50_0 + xp_49_0 + xp_45_0
 + xp_34_0 + xp_18_0 + xp_4_0 + xp_3_0 <= 36540.9934171155
 r_12: + xp_129_0 + xp_128_2 + xp_128_0 + xp_123_0 + xp_117_0 + xp_112_2
 + xp_112_1 + xp_111_2 + xp_111_1 + xp_108_1 + xp_101_0 + xp_91_1
 + xp_82_0 + xp_81_1 + xp_80_1 + xp_79_1 + xp_78_2 + xp_78_0 + xp_73_0
 + xp_63_1 + xp_60_0 + xp_50_1 + xp_46_0 + xp_44_0 + xp_40_1 + xp_40_0
 + xp_18_1 + xp_17_1 + xp_15_0 + xp_14_1 + xp_13_0 + xp_9_0
 <= 36134.2717920953
 r_13: + xp_129_1 + xp_128_1 + xp_126_3 + xp_120_2 + xp_120_1 + xp_112_3
 + xp_109_1 + xp_100_0 + xp_95_1 + xp_91_0 + xp_90_0 + xp_80_0 + xp_79_0
 + xp_75_1 + xp_68_0 + xp_63_0 + xp_60_1 + xp_40_2 + xp_34_1 + xp_31_0
 + xp_30_0 + xp_17_0 + xp_13_1 + xp_9_1 <= 36540.9934171155
 r_14: + xp_131_2 + xp_131_1 + xp_131_0 + xp_126_5 + xp_126_4 + xp_126_2
 + xp_125_1 + xp_125_0 + xp_124_0 + xp_115_1 + xp_115_0 + xp_98_1
 + xp_94_0 + xp_86_2 + xp_86_1 + xp_85_2 + xp_85_1 + xp_77_1 + xp_77_0
 + xp_68_1 + xp_65_1 + xp_65_0 + xp_58_1 + xp_56_0 + xp_51_0 + xp_48_1
 + xp_41_0 + xp_38_0 + xp_35_0 + xp_32_1 + xp_30_1 + xp_24_1 + xp_20_0
 + xp_19_1 + xp_19_0 + xp_12_1 + xp_12_0 + xp_2_1 + xp_0_0
 <= 36656.4228641672
 r_15: + xp_131_2 + xp_131_0 + xp_126_5 + xp_126_4 + xp_126_3 + xp_126_2
 + xp_125_0 + xp_124_0 + xp_120_2 + xp_120_1 + xp_116_0 + xp_115_0
 + xp_109_1 + xp_98_1 + xp_94_0 + xp_90_0 + xp_89_0 + xp_86_1 + xp_85_1
 + xp_77_1 + xp_77_0 + xp_75_1 + xp_68_1 + xp_68_0 + xp_65_0 + xp_58_1
 + xp_51_0 + xp_48_1 + xp_42_1 + xp_42_0 + xp_38_0 + xp_36_0 + xp_32_1
 + xp_28_1 + xp_24_1 + xp_19_1 + xp_12_0 + xp_11_0 + xp_0_0
 <= 36134.2717920953
 r_16: + xp_128_0 + xp_123_0 + xp_108_1 + xp_108_0 + xp_78_2 + xp_78_1
 + xp_78_0 + xp_73_0 + xp_67_0 + xp_57_0 + xp_46_0 + xp_44_0 + xp_40_0
 + xp_22_0 + xp_18_1 + xp_13_0 + xp_6_0 <= 36134.2717920953
 r_17: + xp_129_0 + xp_128_2 + xp_126_0 + xp_112_2 + xp_112_1 + xp_111_2
 + xp_111_1 + xp_109_0 + xp_97_0 + xp_91_1 + xp_90_2 + xp_81_1 + xp_80_1
 + xp_79_1 + xp_63_1 + xp_62_0 + xp_61_0 + xp_60_0 + xp_47_0 + xp_40_1
 + xp_22_1 + xp_17_1 + xp_9_0 + xp_1_0 <= 35194.5923801721
 r_18: + xp_126_3 + xp_126_1 + xp_126_0 + xp_106_0 + xp_99_0 + xp_98_0
 + xp_92_0 + xp_86_0 + xp_85_0 + xp_68_0 + xp_58_0 + xp_48_0 + xp_32_0
 + xp_30_0 + xp_26_0 + xp_24_0 + xp_5_0 + xp_2_0 <= 36540.9934171155
 r_19: + xp_131_1 + xp_125_1 + xp_116_1 + xp_115_1 + xp_110_0 + xp_108_1
 + xp_86_2 + xp_85_2 + xp_78_0 + xp_65_1 + xp_56_0 + xp_28_0 + xp_19_0
 + xp_14_1 + xp_12_1 + xp_11_1 + xp_3_0 + xp_2_1 <= 36540.9934171155
 r_20: + xp_129_1 + xp_128_1 + xp_119_0 + xp_112_3 + xp_112_0 + xp_111_0
 + xp_108_2 + xp_108_0 + xp_107_0 + xp_95_1 + xp_95_0 + xp_91_0
 + xp_81_0 + xp_80_0 + xp_79_0 + xp_78_3 + xp_78_1 + xp_69_0 + xp_64_0
 + xp_63_0 + xp_60_1 + xp_50_0 + xp_49_0 + xp_45_0 + xp_40_2 + xp_18_0
 + xp_17_0 + xp_14_0 + xp_13_1 + xp_10_0 + xp_9_1 + xp_4_0
 <= 35194.5923801721
 r_21: + xp_126_5 + xp_126_4 + xp_113_0 + xp_105_1 + xp_86_2 + xp_86_1
 + xp_77_1 + xp_77_0 + xp_65_1 + xp_65_0 + xp_38_0 + xp_20_0 + xp_2_1
 + xp_0_0 <= 36656.4228641672
 r_22: + xp_126_2 + xp_124_0 + xp_105_0 + xp_98_1 + xp_94_0 + xp_85_2
 + xp_85_1 + xp_83_0 + xp_68_1 + xp_58_1 + xp_48_1 + xp_41_0 + xp_32_1
 + xp_30_1 + xp_24_1 <= 36656.4228641672
 r_23: + xp_128_2 + xp_128_1 + xp_128_0 + xp_117_0 + xp_112_3 + xp_112_2
 + xp_112_1 + xp_111_2 + xp_111_1 + xp_104_0 + xp_100_0 + xp_95_1
 + xp_91_1 + xp_91_0 + xp_84_0 + xp_82_0 + xp_81_1 + xp_80_1 + xp_80_0
 + xp_79_1 + xp_79_0 + xp_78_2 + xp_73_0 + xp_60_1 + xp_60_0 + xp_50_1
 + xp_46_0 + xp_44_0 + xp_40_2 + xp_40_1 + xp_40_0 + xp_34_1 + xp_21_0
 + xp_18_1 + xp_15_0 + xp_9_1 + xp_9_0 + xp_3_1 <= 36656.4228641672
 r_24: + xp_128_0 + xp_126_4 + xp_126_1 + xp_103_0 + xp_90_1 + xp_61_1
 + xp_40_0 + xp_39_0 + xp_22_0 + xp_18_1 + xp_13_0 + xp_12_1 + xp_1_1
 <= 40000
 r_25: + xp_131_0 + xp_127_0 + xp_126_5 + xp_126_3 + xp_126_2 + xp_126_0
 + xp_120_2 + xp_94_0 + xp_90_2 + xp_90_0 + xp_89_0 + xp_77_0 + xp_74_0
 + xp_61_0 + xp_42_0 + xp_38_0 + xp_24_1 + xp_12_0 + xp_1_0
 <= 36134.2717920953
 r_26: + xp_128_2 + xp_128_1 + xp_121_0 + xp_112_3 + xp_112_2 + xp_112_1
 + xp_112_0 + xp_108_2 + xp_107_0 + xp_81_1 + xp_81_0 + xp_79_1
 + xp_79_0 + xp_78_3 + xp_67_1 + xp_64_0 + xp_60_1 + xp_60_0 + xp_47_0
 + xp_40_2 + xp_40_1 + xp_37_0 + xp_29_0 + xp_25_0 + xp_22_1 + xp_18_0
 + xp_17_1 + xp_17_0 + xp_13_1 + xp_4_0 <= 35194.5923801721
 r_27: + xp_131_2 + xp_127_1 + xp_126_4 + xp_125_0 + xp_120_1 + xp_116_0
 + xp_115_0 + xp_108_0 + xp_98_1 + xp_86_1 + xp_85_1 + xp_78_1 + xp_77_1
 + xp_75_1 + xp_72_0 + xp_67_0 + xp_65_0 + xp_58_1 + xp_57_0 + xp_52_0
 + xp_50_0 + xp_48_1 + xp_42_1 + xp_32_1 + xp_28_1 + xp_23_0 + xp_19_1
 + xp_14_0 + xp_11_0 <= 35194.5923801721
 r_28: + xp_131_1 + xp_126_1 + xp_126_0 + xp_125_1 + xp_120_0 + xp_116_1
 + xp_115_1 + xp_109_0 + xp_99_0 + xp_98_0 + xp_96_0 + xp_92_0 + xp_90_2
 + xp_90_1 + xp_86_2 + xp_86_0 + xp_85_2 + xp_85_0 + xp_75_0 + xp_65_1
 + xp_58_0 + xp_54_0 + xp_48_0 + xp_32_0 + xp_28_0 + xp_26_0 + xp_24_0
 + xp_19_0 + xp_12_1 + xp_11_1 <= 35194.5923801721
 r_29: + xp_129_1 + xp_129_0 + xp_95_1 + xp_95_0 + xp_93_0 + xp_87_0
 + xp_71_0 + xp_62_0 + xp_49_0 + xp_45_0 + xp_10_0 + xp_9_1 + xp_9_0
 + xp_1_1 + xp_1_0 <= 35194.5923801721
 r_30: + xp_125_1 + xp_125_0 + xp_121_0 + xp_102_0 + xp_99_0 + xp_96_0
 + xp_92_0 + xp_57_0 + xp_37_0 + xp_26_0 + xp_23_0 + xp_11_1 + xp_11_0
 <= 35194.5923801721

Bounds
 0 <= xp_0_0 <= 233.991983486934
 0 <= xp_1_0 <= 160.933033956253
 0 <= xp_1_1 <= 20.1166292445316
 0 <= xp_2_0 <= 101.382001535618
 0 <= xp_2_1 <= 12.6727501919522
 0 <= xp_3_0 <= 160.700639683392
 0 <= xp_3_1 <= 20.087579960424
 0 <= xp_4_0 <= 782.304483339419
 0 <= xp_5_0 <= 1074.33693647339
 0 <= xp_6_0 <= 1776.96649582662
 0 <= xp_7_0 <= 632.954851421082
 0 <= xp_8_0 <= 1497.15652898093
 0 <= xp_9_0 <= 47.6989245047233
 0 <= xp_9_1 <= 59.6236556309041
 0 <= xp_10_0 <= 54.3802598494775
 0 <= xp_11_0 <= 22.8763112347562
 0 <= xp_11_1 <= 18.3010489878049
 0 <= xp_12_0 <= 1822.145394935
 0 <= xp_12_1 <= 227.768174366875
 0 <= xp_13_0 <= 194.346973001051
 0 <= xp_13_1 <= 55.5277065717288
 0 <= xp_14_0 <= 121.171826333939
 0 <= xp_14_1 <= 96.9374610671509
 0 <= xp_15_0 <= 502.886681829183
 0 <= xp_16_0 <= 2618.94547104413
 0 <= xp_17_0 <= 163.656404341343
 0 <= xp_17_1 <= 130.925123473074
 0 <= xp_18_0 <= 197.789313167804
 0 <= xp_18_1 <= 158.231450534244
 0 <= xp_19_0 <= 583.237001670878
 0 <= xp_19_1 <= 466.589601336703
 0 <= xp_20_0 <= 127.192290465244
 0 <= xp_21_0 <= 272.228103693598
 0 <= xp_22_0 <= 678.845457990106
 0 <= xp_22_1 <= 543.076366392084
 0 <= xp_23_0 <= 51.5697416120646
 0 <= xp_24_0 <= 225.233624328485
 0 <= xp_24_1 <= 112.616812164242
 0 <= xp_25_0 <= 574.064690213895
 0 <= xp_26_0 <= 15.2290871934234
 0 <= xp_27_0 <= 335.170640033799
 0 <= xp_28_0 <= 367.836560012825
 0 <= xp_28_1 <= 294.26924801026
 0 <= xp_29_0 <= 2428.15703534626
 0 <= xp_30_0 <= 161.688315343051
 0 <= xp_30_1 <= 20.2110394178814
 0 <= xp_31_0 <= 189.08905257757
 0 <= xp_32_0 <= 1985.05378021057
 0 <= xp_32_1 <= 248.131722526322
 0 <= xp_33_0 <= 7995.40149832576
 0 <= xp_34_0 <= 281.560186213173
 0 <= xp_34_1 <= 225.248148970539
 0 <= xp_35_0 <= 258.95984317744
 0 <= xp_36_0 <= 316.412064821299
 0 <= xp_37_0 <= 361.968604623085
 0 <= xp_38_0 <= 332.164039128659
 0 <= xp_39_0 <= 1560.94875688128
 0 <= xp_40_0 <= 468.020278579003
 0 <= xp_40_1 <= 93.6040557158007
 0 <= xp_40_2 <= 280.812167147402
 0 <= xp_41_0 <= 79.2827586507406
 0 <= xp_42_0 <= 350.465088116464
 0 <= xp_42_1 <= 100.13288231899
 0 <= xp_43_0 <= 488.180481749696
 0 <= xp_44_0 <= 454.977150014679
 0 <= xp_45_0 <= 42.2231344504357
 0 <= xp_46_0 <= 1592.91023172069
 0 <= xp_47_0 <= 872.044984268905
 0 <= xp_48_0 <= 2563.25073108878
 0 <= xp_48_1 <= 320.406341386097
 0 <= xp_49_0 <= 87.3875089167685
 0 <= xp_50_0 <= 432.325970731757
 0 <= xp_50_1 <= 345.860776585406
 0 <= xp_51_0 <= 704.00213802731
 0 <= xp_52_0 <= 657.203741329923
 0 <= xp_53_0 <= 188.435443685149
 0 <= xp_54_0 <= 3664.58897714021
 0 <= xp_55_0 <= 1175.90775835571
 0 <= xp_56_0 <= 95.0347329581013
 0 <= xp_57_0 <= 204.448861549478
 0 <= xp_58_0 <= 4009.73078394395
 0 <= xp_58_1 <= 501.216347992994
 0 <= xp_59_0 <= 10561.0778446375
 0 <= xp_60_0 <= 298.917133467481
 0 <= xp_60_1 <= 373.646416834351
 0 <= xp_61_0 <= 1333.97943782736
 0 <= xp_61_1 <= 1067.18355026189
 0 <= xp_62_0 <= 130.198891370384
 0 <= xp_63_0 <= 101.723330623882
 0 <= xp_63_1 <= 29.0638087496807
 0 <= xp_64_0 <= 986.622623110412
 0 <= xp_65_0 <= 460.721645946962
 0 <= xp_65_1 <= 57.5902057433703
 0 <= xp_66_0 <= 1666.89875834282
 0 <= xp_67_0 <= 356.841405978088
 0 <= xp_67_1 <= 44.6051757472611
 0 <= xp_68_0 <= 649.716288351183
 0 <= xp_68_1 <= 812.145360438978
 0 <= xp_69_0 <= 1705.20023943872
 0 <= xp_70_0 <= 626.745566943077
 0 <= xp_71_0 <= 70.3283168245647
 0 <= xp_72_0 <= 594.391926768207
 0 <= xp_73_0 <= 915.836780061152
 0 <= xp_74_0 <= 945.837428223304
 0 <= xp_75_0 <= 1555.82155823628
 0 <= xp_75_1 <= 194.477694779535
 0 <= xp_76_0 <= 1708.7297274578
 0 <= xp_77_0 <= 504.644163517694
 0 <= xp_77_1 <= 63.0805204397117
 0 <= xp_78_0 <= 3086.26130448352
 0 <= xp_78_1 <= 6172.52260896704
 0 <= xp_78_2 <= 12345.0452179341
 0 <= xp_78_3 <= 6172.52260896704
 0 <= xp_79_0 <= 587.449147866484
 0 <= xp_79_1 <= 469.959318293187
 0 <= xp_80_0 <= 124.330935980643
 0 <= xp_80_1 <= 99.4647487845144
 0 <= xp_81_0 <= 201.413211360231
 0 <= xp_81_1 <= 57.5466318172088
 0 <= xp_82_0 <= 218.174648290332
 0 <= xp_83_0 <= 500.141524481012
 0 <= xp_84_0 <= 883.483139886283
 0 <= xp_85_0 <= 225.38613307005
 0 <= xp_85_1 <= 135.23167984203
 0 <= xp_85_2 <= 45.07722661401
 0 <= xp_86_0 <= 94.5554197703255
 0 <= xp_86_1 <= 56.7332518621953
 0 <= xp_86_2 <= 18.9110839540651
 0 <= xp_87_0 <= 140.264468313676
 0 <= xp_88_0 <= 422.165983615114
 0 <= xp_89_0 <= 2204.88423769504
 0 <= xp_90_0 <= 9576.76463961367
 0 <= xp_90_1 <= 7182.57347971026
 0 <= xp_90_2 <= 4788.38231980684
 0 <= xp_91_0 <= 1200.86835572519
 0 <= xp_91_1 <= 1501.08544465648
 0 <= xp_92_0 <= 66.406663470035
 0 <= xp_93_0 <= 129.545282477962
 0 <= xp_94_0 <= 235.429923050262
 0 <= xp_95_0 <= 54.1478655766165
 0 <= xp_95_1 <= 6.76848319707706
 0 <= xp_96_0 <= 114.642999730749
 0 <= xp_97_0 <= 523.932888165158
 0 <= xp_98_0 <= 94.7297154749712
 0 <= xp_98_1 <= 47.3648577374856
 0 <= xp_99_0 <= 16.274861421298
 0 <= xp_100_0 <= 499.945441813285
 0 <= xp_101_0 <= 248.37137912021
 0 <= xp_102_0 <= 74.5114137360629
 0 <= xp_103_0 <= 1431.14203084635
 0 <= xp_104_0 <= 131.113943819774
 0 <= xp_105_0 <= 1281.07342914634
 0 <= xp_105_1 <= 160.134178643293
 0 <= xp_106_0 <= 41.1773602225611
 0 <= xp_107_0 <= 447.068482416378
 0 <= xp_108_0 <= 93.7783514204464
 0 <= xp_108_1 <= 281.335054261339
 0 <= xp_108_2 <= 468.891757102232
 0 <= xp_109_0 <= 427.08257495033
 0 <= xp_109_1 <= 533.853218687913
 0 <= xp_110_0 <= 132.421161604617
 0 <= xp_111_0 <= 2261.39961992643
 0 <= xp_111_1 <= 323.057088560918
 0 <= xp_111_2 <= 323.057088560918
 0 <= xp_112_0 <= 3102.33282091606
 0 <= xp_112_1 <= 517.055470152678
 0 <= xp_112_2 <= 517.055470152678
 0 <= xp_112_3 <= 517.055470152678
 0 <= xp_113_0 <= 422.884953396778
 0 <= xp_114_0 <= 2383.58090888311
 0 <= xp_115_0 <= 170.809790552846
 0 <= xp_115_1 <= 48.8027973008131
 0 <= xp_116_0 <= 123.481244420495
 0 <= xp_116_1 <= 35.2803555487128
 0 <= xp_117_0 <= 1931.74108155205
 0 <= xp_118_0 <= 3136.01546583886
 0 <= xp_119_0 <= 62.4196492262632
 0 <= xp_120_0 <= 1437.85241547521
 0 <= xp_120_1 <= 479.284138491736
 0 <= xp_120_2 <= 239.642069245868
 0 <= xp_121_0 <= 75.0996617392424
 0 <= xp_122_0 <= 2261.29068511103
 0 <= xp_123_0 <= 510.795349427484
 0 <= xp_124_0 <= 136.865702073084
 0 <= xp_125_0 <= 18.0831793569977
 0 <= xp_125_1 <= 9.04158967849886
 0 <= xp_126_0 <= 2803.19055549675
 0 <= xp_126_1 <= 5606.3811109935
 0 <= xp_126_2 <= 8409.57166649025
 0 <= xp_126_3 <= 2803.19055549675
 0 <= xp_126_4 <= 2803.19055549675
 0 <= xp_126_5 <= 2803.19055549675
 0 <= xp_127_0 <= 318.561711845263
 0 <= xp_127_1 <= 254.849369476211
 0 <= xp_128_0 <= 269.156141899217
 0 <= xp_128_1 <= 89.7187139664056
 0 <= xp_128_2 <= 44.8593569832028
 0 <= xp_129_0 <= 21.641716660182
 0 <= xp_129_1 <= 27.0521458252275
 0 <= xp_130_0 <= 401.250499057623
 0 <= xp_131_0 <= 254.406367893569
 0 <= xp_131_1 <= 424.010613155949
 0 <= xp_131_2 <= 84.8021226311897

End
